db/data/193444559190051080141188457306415188.z3.out
sat
-------------------
77.382154081
